135
100000
3692
24807
13418
15934
21853
17265
15142
21752
11044
3163
24294
1873
12335
19092
9235
14710
12902
23527
18461
4516
20903
662
3821
19311
2211
4622
9847
18470
5200
937
5072
15369
13902
20192
16671
4955
10054
778
5450
12422
16423
5784
19692
17922
21743
23122
7600
21359
13030
17455
4790
4812
7723
6166
11955
5580
8808
24981
10043
1671
21310
897
17901
10600
12895
8158
1162
129
7301
22557
11181
10891
5093
2312
18375
9530
6124
690
5802
6515
3300
9
4564
7671
5723
2430
19215
1353
14062
505
17498
4976
745
3289
11552
11360
21758
16035
10307
14100
6688
14602
22875
21161
6935
5806
17853
8469
225
1207
12666
23178
24404
16621
11117
1750
9027
19799
19325
10170
2398
4917
23329
13699
24481
11058
7052
2047
15856
8686
19221
10078
17759
5053
90
